c ---- [ banner ] ------------------------------------------------------------
c
c Kissat SAT Solver
c 
c Copyright (c) 2021-2024 Armin Biere University of Freiburg
c Copyright (c) 2019-2021 Armin Biere Johannes Kepler University Linz
c 
c Version 4.0.1 43f02cf3e992cb44653b35e5cb26f93281552ae0
c gcc (Ubuntu 13.2.0-23ubuntu4) 13.2.0 -W -Wall -O3 -DNDEBUG
c Thu Sep 12 12:27:46 CEST 2024 Linux abryzen9 6.8.0-41-generic x86_64
c
c ---- [ parsing ] -----------------------------------------------------------
c
c opened and reading DIMACS file:
c
c   /data/artifact/AMulet2.0_artifact/exp4/cnf_compress2rs_64/64_64_U1_DT_LF_Multgen_compress2rs.cnf
c
c parsed 'p cnf 34661 135337' header
c closing input after reading 2633270 bytes (3 MB)
c finished parsing after 0.02 seconds
c
c ---- [ options ] -----------------------------------------------------------
c
c --stable=0                       (different from default '1')
c
c ---- [ solving ] -----------------------------------------------------------
c
c  seconds switched rate     size/glue tier1  binary           remaining
c         MB reductions conflicts size  tier2     irredundant
c          level restarts redundant glue  trail           variables
c
c *  0.02 10 0 0 0  0 0   0   0 0.0 0 0 0 0 0% 27490 107845 34658 100%
c (  0.03 12 0 0 0  0 0   0   0 0.0 0 0 0 0 0% 27490 107845 34658 100%
c .  0.04 13 0 0 0  0 0   0   0 0.0 0 0 0 0 0% 27486 107845 34658 100%
c c  0.09 20 0 0 0  0 0   0   0 0.0 0 0 0 0 0% 34390 94037 31206 90%
c d  0.10 21 0 0 0  0 0   0   0 0.0 0 0 0 0 0% 27486 94037 31206 90%
c =  0.14 21 0 0 0  0 0   0   0 0.0 0 0 0 0 0% 28010 94037 30944 89%
c d  0.14 21 0 0 0  0 0   0   0 0.0 0 0 0 0 0% 27486 94037 30944 89%
c f  0.21 19 0 0 0  0 0   0   0 0.0 0 0 0 0 0% 30268 89595 32604 94%
c e  0.30 28 0 0 0  0 0   0   0 0.0 0 0 0 0 0% 8522 103393 21612 62%
c )  0.30 28 0 0 0  0 0   0   0 0.0 0 0 0 0 0% 8522 103393 21612 62%
c {  0.32 28 0 0 0  0 0   0   0 0.0 0 0 2 6 0% 8522 103393 21612 62%
c -  0.55 28 170 0 1 269 39 1000 814 4.7 30 6 3 12 26% 8535 103393 21612 62%
c -  0.70 30 245 0 2 391 40 2000 1476 4.7 31 7 3 12 25% 8569 103393 21612 62%
c c  0.84 23 257 0 2 451 41 2503 1910 4.5 31 7 3 12 26% 8582 103374 21606 62%
c d  0.85 23 257 0 2 451 41 2503 1907 4.5 31 7 3 12 26% 8570 103374 21606 62%
c u  0.86 23 257 0 2 451 41 2503 1467 4.5 31 7 3 12 26% 8573 103374 21606 62%
c v  0.87 23 257 0 2 451 41 2503 1208 4.5 31 7 3 12 26% 8573 103374 21606 62%
c w  0.89 23 257 0 2 451 41 2503 1208 4.5 31 7 3 12 26% 8573 103374 21606 62%
c =  0.99 26 257 0 2 451 41 2503 1208 4.5 31 7 3 12 26% 9035 103374 21375 62%
c d  1.00 26 257 0 2 451 41 2503 1205 4.5 31 7 3 12 26% 8568 103374 21375 62%
c
c  seconds   switched   rate       size/glue tier1     binary          remaining
c         MB  reductions conflicts       size  tier2      irredundant
c           level restarts    redundant    glue    trail          variables
c
c f  1.05 26 257 0 2 451 41 2503 1205 4.5 31 7 3 12 26% 9260 102067 21990 63%
c u  1.09 26 257 0 2 451 41 2503 1138 4.5 31 7 3 12 26% 9260 102067 21990 63%
c v  1.11 26 257 0 2 451 41 2503 1091 4.5 31 7 3 12 26% 9260 102067 21990 63%
c w  1.16 26 257 0 2 451 41 2503 1085 4.5 31 7 3 12 26% 9260 102067 21990 63%
c =  1.25 26 257 0 2 451 41 2503 1085 4.5 31 7 3 12 26% 9836 102067 21702 63%
c d  1.25 26 257 0 2 451 41 2503 1077 4.5 31 7 3 12 26% 9193 102067 21702 63%
c f  1.30 26 257 0 2 451 41 2503 1077 4.5 31 7 3 12 26% 9761 101215 21986 63%
c -  1.63 26 242 0 3 584 39 3416 1600 4.4 31 7 3 12 29% 9782 101215 21986 63%
c -  1.94 26 293 0 4 718 36 5148 2655 4.4 30 7 3 12 28% 9824 101215 21986 63%
c -  2.43 26 300 0 5 1024 39 7148 3694 4.7 33 7 2 11 29% 9881 101215 21986 63%
c c  2.62 26 301 0 5 1105 39 7705 4207 4.6 33 7 2 11 29% 9892 101110 21952 63%
c d  2.63 26 301 0 5 1105 39 7705 4175 4.6 33 7 2 11 29% 9824 101110 21952 63%
c u  2.64 26 301 0 5 1105 39 7705 3407 4.6 33 7 2 11 29% 9832 101110 21952 63%
c v  2.67 26 301 0 5 1105 39 7705 2852 4.6 33 7 2 11 29% 9832 101110 21952 63%
c w  2.71 26 301 0 5 1105 39 7705 2848 4.6 33 7 2 11 29% 9832 101110 21952 63%
c x  2.73 26 301 0 5 1105 39 7705 2848 4.6 33 7 2 11 29% 9832 100534 21952 63%
c =  2.85 26 301 0 5 1105 39 7705 2848 4.6 33 7 2 11 29% 10822 100534 21457 62%
c d  2.86 26 301 0 5 1105 39 7705 2845 4.6 33 7 2 11 29% 9715 100534 21457 62%
c t  2.87 26 301 0 5 1105 39 7705 2845 4.6 33 7 2 11 29% 9703 100534 21457 62%
c f  2.91 26 301 0 5 1105 39 7705 2845 4.6 33 7 2 11 29% 11397 97993 22304 64%
c
c  seconds   switched    rate       size/glue tier1     binary          remaining
c         MB  reductions  conflicts       size  tier2       irredundant
c           level  restarts    redundant    glue    trail          variables
c
c u  2.96 26 301 0 5 1105 39 7705 2696 4.6 33 7 2 11 29% 11399 97993 22304 64%
c v  2.98 26 301 0 5 1105 39 7705 2586 4.6 33 7 2 11 29% 11399 97993 22304 64%
c w  3.02 26 301 0 5 1105 39 7705 2577 4.6 33 7 2 11 29% 11399 97993 22304 64%
c x  3.05 26 301 0 5 1105 39 7705 2577 4.6 33 7 2 11 29% 11399 91073 22304 64%
c =  3.17 26 301 0 5 1105 39 7705 2577 4.6 33 7 2 11 29% 11935 91071 22036 64%
c d  3.18 26 301 0 5 1105 39 7705 2567 4.6 33 7 2 11 29% 11356 91071 22036 64%
c t  3.19 26 301 0 5 1105 39 7705 2567 4.6 33 7 2 11 29% 11318 91071 22036 64%
c f  3.22 26 301 0 5 1105 39 7705 2567 4.6 33 7 2 11 29% 11319 91069 22037 64%
c -  3.51 26 309 0 6 1245 38 9385 3457 4.8 35 7 2 10 29% 11354 91069 22037 64%
c o  3.62 26 311 0 6 1284 37 10105 4048 4.7 34 7 2 10 29% 11383 91069 22037 64%
c -  3.86 26 308 0 7 1373 35 11834 4883 4.6 32 7 2 10 29% 11406 91069 22037 64%
c s  4.00 26 313 0 7 1436 34 12505 5507 4.5 32 7 2 10 29% 11413 90042 22037 64%
c e  4.08 26 313 0 7 1436 34 12505 5507 4.5 32 7 2 10 29% 9981 90831 20544 59%
c s  4.08 26 313 0 7 1436 34 12505 5507 4.5 32 7 2 10 29% 9982 89941 20544 59%
c e  4.09 26 313 0 7 1436 34 12505 5507 4.5 32 7 2 10 29% 9943 89980 20525 59%
c ^  4.09 26 313 0 7 1436 34 12505 5507 4.5 32 7 2 10 29% 9943 89980 20525 59%
c -  4.38 26 323 0 8 1578 33 14481 5802 4.4 31 7 2 10 28% 9977 89980 20525 59%
c d  4.62 26 318 0 8 1700 33 15781 6906 4.4 32 7 2 10 28% 9786 89980 20388 59%
c u  4.64 26 318 0 8 1700 33 15781 5658 4.4 32 7 2 10 28% 9792 89980 20388 59%
c v  4.67 26 318 0 8 1700 33 15781 4754 4.4 32 7 2 10 28% 9792 89980 20388 59%
c
c  seconds   switched    rate        size/glue tier1     binary         remaining
c         MB  reductions   conflicts       size  tier2      irredundant
c           level  restarts     redundant    glue    trail         variables
c
c w  4.73 26 318 0 8 1700 33 15781 4754 4.4 32 7 2 10 28% 9792 89980 20388 59%
c x  4.76 26 318 0 8 1700 33 15781 4754 4.4 32 7 2 10 28% 9793 89301 20388 59%
c =  4.90 26 318 0 8 1700 33 15781 4754 4.4 32 7 2 10 28% 11379 89301 19595 57%
c d  4.91 26 318 0 8 1700 33 15781 4717 4.4 32 7 2 10 28% 9449 89301 19593 57%
c t  4.92 26 318 0 8 1700 33 15781 4717 4.4 32 7 2 10 28% 9439 89301 19593 57%
c f  4.95 26 318 0 8 1700 33 15781 4717 4.4 32 7 2 10 28% 9453 89273 19600 57%
c u  5.01 26 318 0 8 1700 33 15781 4453 4.4 32 7 2 10 28% 9457 89273 19600 57%
c v  5.03 26 318 0 8 1700 33 15781 4326 4.4 32 7 2 10 28% 9457 89273 19600 57%
c w  5.09 26 318 0 8 1700 33 15781 4306 4.4 32 7 2 10 28% 9457 89273 19600 57%
c x  5.12 26 318 0 8 1700 33 15781 4306 4.4 32 7 2 10 28% 9457 88684 19600 57%
c =  5.28 26 318 0 8 1700 33 15781 4306 4.4 32 7 2 10 28% 11493 88684 18582 54%
c d  5.29 26 318 0 8 1700 33 15781 4225 4.4 32 7 2 10 28% 9013 88684 18582 54%
c -  5.49 26 337 0 9 1784 32 17309 4819 4.4 31 7 2 10 27% 9027 88684 18582 54%
c o  5.70 26 351 0 9 1854 30 20128 7309 4.2 29 7 2 10 26% 9060 88684 18582 54%
c -  5.77 26 349 0 10 1900 30 20309 6639 4.3 29 7 2 8 26% 9061 88684 18582 54%
c -  6.29 26 338 0 11 2189 31 23471 8329 4.2 29 7 2 8 27% 9104 88684 18582 54%
c s  6.54 26 346 0 11 2333 31 25006 9568 4.4 30 7 2 8 27% 9152 87191 18582 54%
c e  6.64 26 346 0 11 2333 31 25006 9568 4.4 30 7 2 8 27% 8238 90167 16220 47%
c s  6.65 26 346 0 11 2333 31 25006 9568 4.4 30 7 2 8 27% 8238 85569 16220 47%
c e  6.68 26 346 0 11 2333 31 25006 9568 4.4 30 7 2 8 27% 8218 85604 16200 47%
c
c  seconds   switched     rate        size/glue tier1    binary         remaining
c         MB   reductions   conflicts       size  tier2     irredundant
c           level   restarts     redundant    glue   trail         variables
c
c ^  6.68 26 346 0 11 2333 31 25006 9568 4.4 30 7 2 8 27% 8218 85604 16200 47%
c -  6.84 26 330 0 12 2383 30 26787 8027 4.3 29 7 2 7 27% 8261 85604 16200 47%
c d  6.84 26 331 0 12 2385 30 26908 8097 4.2 29 7 2 7 27% 8130 85604 16115 46%
c u  6.87 26 331 0 12 2385 30 26908 6724 4.2 29 7 2 7 27% 8142 85604 16115 46%
c v  6.90 26 331 0 12 2385 30 26908 5738 4.2 29 7 2 7 27% 8143 85604 16115 46%
c w  6.90 26 331 0 12 2385 30 26908 5737 4.2 29 7 2 7 27% 8143 85604 16115 46%
c x  6.95 26 331 0 12 2385 30 26908 5736 4.2 29 7 2 7 27% 8143 83375 16115 46%
c =  7.09 26 331 0 12 2385 30 26908 5736 4.2 29 7 2 7 27% 8537 83371 15918 46%
c d  7.09 26 331 0 12 2385 30 26908 5681 4.2 29 7 2 7 27% 8126 83371 15914 46%
c t  7.11 26 331 0 12 2385 30 26908 5681 4.2 29 7 2 7 27% 8118 83371 15914 46%
c f  7.15 26 331 0 12 2385 30 26908 5681 4.2 29 7 2 7 27% 8103 83358 15921 46%
c u  7.17 26 331 0 12 2385 30 26908 5490 4.2 29 7 2 7 27% 8108 83358 15921 46%
c v  7.19 26 331 0 12 2385 30 26908 5377 4.2 29 7 2 7 27% 8108 83358 15921 46%
c w  7.19 26 331 0 12 2385 30 26908 5374 4.2 29 7 2 7 27% 8108 83358 15921 46%
c x  7.25 26 331 0 12 2385 30 26908 5374 4.2 29 7 2 7 27% 8108 79216 15921 46%
c =  7.40 26 331 0 12 2385 30 26908 5374 4.2 29 7 2 7 27% 8420 79216 15765 45%
c d  7.40 26 331 0 12 2385 30 26908 5332 4.2 29 7 2 7 27% 8095 79216 15764 45%
c -  7.59 26 322 0 13 2444 28 30251 7411 4.0 27 7 2 7 26% 8129 79215 15764 45%
c -  8.20 26 305 0 14 2824 28 33856 9509 3.9 27 7 2 7 27% 8169 79215 15764 45%
c -  8.68 26 296 0 15 3147 28 37598 11264 4.0 27 7 2 7 26% 8223 79215 15764 45%
c
c  seconds   switched     rate         size/glue tier1    binary         remaining
c         MB   reductions   conflicts        size  tier2     irredundant
c           level   restarts      redundant    glue   trail         variables
c
c o  8.96 26 298 0 15 3321 27 40266 13573 3.9 27 7 2 7 26% 8251 79214 15764 45%
c c  9.14 26 294 0 15 3437 27 41242 14407 3.9 27 7 2 7 26% 8317 78914 15684 45%
c d  9.15 26 294 0 15 3437 27 41242 14291 3.9 27 7 2 7 26% 8076 78914 15630 45%
c u  9.18 26 294 0 15 3437 27 41242 12175 3.9 27 7 2 7 26% 8094 78914 15630 45%
c v  9.23 26 294 0 15 3437 27 41242 10642 3.9 27 7 2 7 26% 8099 78914 15630 45%
c w  9.28 26 294 0 15 3437 27 41242 10642 3.9 27 7 2 7 26% 8099 78914 15630 45%
c x  9.32 26 294 0 15 3437 27 41242 10642 3.9 27 7 2 7 26% 8099 78005 15630 45%
c =  9.50 26 294 0 15 3437 27 41242 10642 3.9 27 7 2 7 26% 9505 77998 14927 43%
c d  9.51 26 294 0 15 3437 27 41242 10100 3.9 27 7 2 7 26% 7945 77998 14927 43%
c t  9.52 26 294 0 15 3437 27 41242 10100 3.9 27 7 2 7 26% 7940 77998 14927 43%
c u  9.57 26 294 0 15 3437 27 41242 9230 3.9 27 7 2 7 26% 7942 77998 14927 43%
c v  9.60 26 294 0 15 3437 27 41242 8952 3.9 27 7 2 7 26% 7942 77998 14927 43%
c w  9.67 26 294 0 15 3437 27 41242 8931 3.9 27 7 2 7 26% 7942 77998 14927 43%
c x  9.72 26 294 0 15 3437 27 41242 8931 3.9 27 7 2 7 26% 7942 74823 14927 43%
c -  9.94 26 295 0 16 3465 27 41470 8056 3.9 27 7 2 6 26% 7943 74823 14927 43%
c - 10.41 26 288 0 17 3772 27 45470 10358 3.8 26 7 2 6 26% 7964 74820 14927 43%
c - 10.85 26 280 0 18 4083 27 49594 12423 3.7 26 7 2 6 26% 8016 74819 14927 43%
c s 11.23 26 275 0 18 4357 27 52110 14607 3.7 26 7 2 6 26% 8044 74463 14927 43%
c e 11.30 26 275 0 18 4357 27 52110 14607 3.7 26 7 2 6 26% 7204 75990 14097 41%
c s 11.31 26 275 0 18 4357 27 52110 14607 3.7 26 7 2 6 26% 7207 75279 14097 41%
c
c  seconds   switched     rate         size/glue tier1    binary         remaining
c         MB   reductions   conflicts        size  tier2     irredundant
c           level   restarts      redundant    glue   trail         variables
c
c e 11.32 26 275 0 18 4357 27 52110 14607 3.7 26 7 2 6 26% 7205 75293 14088 41%
c ^ 11.32 26 275 0 18 4357 27 52110 14607 3.7 26 7 2 6 26% 7205 75293 14088 41%
c - 11.54 26 269 0 19 4491 26 53836 13025 3.7 26 7 2 6 26% 7213 75293 14088 41%
c - 11.97 26 256 0 20 4771 25 58194 14998 3.6 25 7 2 6 26% 7250 75291 14088 41%
c c 12.08 26 254 0 20 4810 25 58889 15602 3.5 25 7 2 6 26% 7300 75062 14046 41%
c d 12.08 26 254 0 20 4810 25 58889 15523 3.5 25 7 2 6 26% 7216 75062 14046 41%
c u 12.12 26 254 0 20 4810 25 58889 13193 3.5 25 7 2 6 26% 7248 75062 14046 41%
c v 12.17 26 254 0 20 4810 25 58889 11519 3.5 25 7 2 6 26% 7251 75062 14046 41%
c w 12.18 26 254 0 20 4810 25 58889 11487 3.5 25 7 2 6 26% 7251 75062 14046 41%
c x 12.25 26 254 0 20 4810 25 58889 11487 3.5 25 7 2 6 26% 7251 74367 14046 41%
c d 12.26 26 254 0 20 4810 25 58889 11474 3.5 25 7 2 6 26% 7231 74367 14036 40%
c t 12.27 26 254 0 20 4810 25 58889 11474 3.5 25 7 2 6 26% 7227 74367 14036 40%
c f 12.30 26 254 0 20 4810 25 58889 11474 3.5 25 7 2 6 26% 7229 74359 14037 40%
c c 12.33 26 254 0 20 4810 25 58889 11464 3.5 25 7 2 6 26% 7237 74318 14032 40%
c d 12.33 26 254 0 20 4810 25 58889 11464 3.5 25 7 2 6 26% 7227 74318 14032 40%
c u 12.36 26 254 0 20 4810 25 58889 11050 3.5 25 7 2 6 26% 7236 74318 14032 40%
c v 12.39 26 254 0 20 4810 25 58889 10762 3.5 25 7 2 6 26% 7237 74318 14032 40%
c w 12.41 26 254 0 20 4810 25 58889 10741 3.5 25 7 2 6 26% 7237 74318 14032 40%
c x 12.49 26 254 0 20 4810 25 58889 10740 3.5 25 7 2 6 26% 7237 73891 14032 40%
c = 12.72 26 254 0 20 4810 25 58889 10740 3.5 25 7 2 6 26% 7833 73888 13734 40%
c
c  seconds   switched     rate         size/glue tier1    binary         remaining
c         MB   reductions   conflicts        size  tier2     irredundant
c           level   restarts      redundant    glue   trail         variables
c
c d 12.72 26 254 0 20 4810 25 58889 10471 3.5 25 7 2 6 26% 7180 73888 13732 40%
c - 13.13 26 243 0 21 5042 24 62667 12260 3.4 24 7 2 6 26% 7217 73888 13732 40%
c - 13.62 26 231 0 22 5384 24 67249 14647 3.3 23 7 2 6 27% 7250 73887 13732 40%
c o 14.02 26 224 0 22 5644 23 70563 17608 3.3 23 7 2 6 26% 7281 73887 13732 40%
c - 14.23 26 222 0 23 5795 23 71939 16692 3.3 23 7 2 6 27% 7289 73887 13732 40%
c - 14.95 26 216 0 24 6244 23 76734 18500 3.2 22 7 2 6 27% 7333 73887 13732 40%
c d 15.52 26 212 0 24 6583 23 79972 21170 3.2 22 7 2 6 27% 7243 73887 13665 39%
c u 15.60 26 212 0 24 6583 23 79972 17604 3.2 22 7 2 6 27% 7280 73887 13665 39%
c v 15.69 26 212 0 24 6583 23 79972 15455 3.2 22 7 2 6 27% 7284 73887 13665 39%
c w 15.85 26 212 0 24 6583 23 79972 15424 3.2 22 7 2 6 27% 7284 73887 13665 39%
c d 15.93 26 212 0 24 6583 23 79972 15393 3.2 22 7 2 6 27% 7250 73887 13648 39%
c t 15.94 26 212 0 24 6583 23 79972 15393 3.2 22 7 2 6 27% 7246 73887 13648 39%
c c 16.00 26 212 0 24 6583 23 79972 15393 3.2 22 7 2 6 27% 7325 73505 13601 39%
c d 16.00 26 212 0 24 6583 23 79972 15303 3.2 22 7 2 6 27% 7231 73505 13601 39%
c u 16.05 26 212 0 24 6583 23 79972 14601 3.2 22 7 2 6 27% 7242 73505 13601 39%
c v 16.09 26 212 0 24 6583 23 79972 14210 3.2 22 7 2 6 27% 7243 73505 13601 39%
c w 16.15 26 212 0 24 6583 23 79972 14071 3.2 22 7 2 6 27% 7243 73505 13601 39%
c x 16.21 26 212 0 24 6583 23 79972 14070 3.2 22 7 2 6 27% 7243 71506 13601 39%
c d 16.22 26 212 0 24 6583 23 79972 14069 3.2 22 7 2 6 27% 7235 71506 13597 39%
c - 16.38 26 210 0 25 6665 23 81634 13786 3.2 22 7 2 5 27% 7249 71506 13597 39%
c
c  seconds   switched     rate         size/glue tier1    binary         remaining
c         MB   reductions   conflicts        size  tier2     irredundant
c           level   restarts      redundant    glue   trail         variables
c
c - 16.99 26 202 0 26 7097 22 86636 14662 3.1 22 7 1 6 27% 7287 71505 13597 39%
c - 17.48 26 204 0 27 7471 22 91735 15856 3.0 21 7 1 5 27% 7358 71505 13597 39%
c s 17.95 26 199 0 27 7792 22 95815 19457 3.0 21 7 1 5 27% 7392 71382 13597 39%
c e 18.02 26 199 0 27 7792 22 95815 19457 3.0 21 7 1 5 27% 5001 77398 12305 36%
c 2 18.02 26 199 0 27 7792 22 95815 19457 3.0 21 7 1 5 27% 4999 77398 12305 36%
c s 18.03 26 199 0 27 7792 22 95815 19457 3.0 21 7 1 5 27% 4999 77215 12305 36%
c e 18.04 26 199 0 27 7792 22 95815 19457 3.0 21 7 1 5 27% 4992 77283 12281 35%
c ^ 18.04 26 199 0 27 7792 22 95815 19457 3.0 21 7 1 5 27% 4992 77283 12281 35%
c - 18.17 26 197 0 28 7867 21 96932 13928 3.0 21 7 1 5 27% 5003 77283 12281 35%
c - 18.82 26 192 0 29 8404 21 102223 15803 2.9 21 7 1 5 27% 5038 77277 12281 35%
c c 19.32 26 191 0 29 8712 21 104626 17994 2.9 21 7 1 5 27% 5159 76729 12191 35%
c d 19.33 26 191 0 29 8712 21 104626 17812 2.9 21 7 1 5 27% 4979 76729 12191 35%
c u 19.37 26 191 0 29 8712 21 104626 16069 2.9 21 7 1 5 27% 5005 76729 12191 35%
c v 19.43 26 191 0 29 8712 21 104626 13359 2.9 21 7 1 5 27% 5016 76729 12191 35%
c w 19.51 26 191 0 29 8712 21 104626 13228 2.9 21 7 1 5 27% 5016 76729 12191 35%
c x 19.59 26 191 0 29 8712 21 104626 13228 2.9 21 7 1 5 27% 5016 76053 12191 35%
c = 19.92 26 191 0 29 8712 21 104626 13228 2.9 21 7 1 5 27% 6218 75989 11582 33%
c d 19.93 26 191 0 29 8712 21 104626 12772 2.9 21 7 1 5 27% 4887 75989 11582 33%
c u 20.04 26 191 0 29 8712 21 104626 11869 2.9 21 7 1 5 27% 4887 75989 11582 33%
c v 20.08 26 191 0 29 8712 21 104626 11310 2.9 21 7 1 5 27% 4894 75989 11582 33%
c
c  seconds   switched     rate          size/glue tier1    binary         remaining
c         MB   reductions   conflicts         size  tier2     irredundant
c           level   restarts       redundant    glue   trail         variables
c
c w 20.18 26 191 0 29 8712 21 104626 11025 2.9 21 7 1 5 27% 4894 75989 11582 33%
c x 20.25 26 191 0 29 8712 21 104626 11025 2.9 21 7 1 5 27% 4894 75903 11582 33%
c = 20.59 26 191 0 29 8712 21 104626 11025 2.9 21 7 1 5 27% 5218 75903 11420 33%
c d 20.59 26 191 0 29 8712 21 104626 10921 2.9 21 7 1 5 27% 4873 75903 11420 33%
c - 21.09 26 188 0 30 9128 22 107608 11516 2.9 20 7 1 5 27% 4874 75901 11420 33%
c o 21.45 26 185 0 30 9414 21 110994 14496 2.8 20 7 1 5 27% 4885 75901 11420 33%
c - 21.79 26 183 0 31 9715 22 113086 13971 2.8 20 7 1 5 27% 4891 75901 11420 33%
c - 22.55 26 180 0 32 10336 22 118653 15813 2.8 20 7 1 5 27% 4919 75901 11420 33%
c - 23.19 26 176 0 33 10766 21 124313 17323 2.8 20 7 1 5 27% 4970 75901 11420 33%
c - 24.03 28 172 0 34 11319 21 130057 18456 2.8 21 7 1 5 27% 5022 75901 11420 33%
c d 24.50 28 172 0 34 11651 21 132896 20673 2.8 21 8 1 5 27% 4921 75901 11352 33%
c u 24.54 28 172 0 34 11651 21 132896 18266 2.8 21 8 1 5 27% 4943 75901 11352 33%
c v 24.61 28 172 0 34 11651 21 132896 15000 2.8 21 8 1 5 27% 4954 75901 11352 33%
c w 24.84 28 172 0 34 11651 21 132896 14510 2.8 21 8 1 5 27% 4954 75901 11352 33%
c = 25.31 28 172 0 34 11651 21 132896 14510 2.8 21 8 1 5 27% 5324 75831 11158 32%
c d 25.31 28 172 0 34 11651 21 132896 14057 2.8 21 8 1 5 27% 4880 75831 11158 32%
c t 25.32 28 172 0 34 11651 21 132896 14057 2.8 21 8 1 5 27% 4874 75831 11158 32%
c u 25.40 28 172 0 34 11651 21 132896 13373 2.8 21 8 1 5 27% 4874 75831 11158 32%
c v 25.44 28 172 0 34 11651 21 132896 12685 2.8 21 8 1 5 27% 4875 75831 11158 32%
c w 25.64 28 172 0 34 11651 21 132896 12606 2.8 21 8 1 5 27% 4875 75831 11158 32%
c
c  seconds   switched      rate          size/glue tier1    binary         remaining
c         MB   reductions    conflicts         size  tier2     irredundant
c           level   restarts        redundant    glue   trail         variables
c
c x 25.73 28 172 0 34 11651 21 132896 12597 2.8 21 8 1 5 27% 4875 69278 11158 32%
c = 26.19 28 172 0 34 11651 21 132896 12597 2.8 21 8 1 5 27% 4967 69278 11112 32%
c d 26.19 28 172 0 34 11651 21 132896 12564 2.8 21 8 1 5 27% 4871 69278 11112 32%
c - 26.43 28 171 0 35 11784 21 135887 12783 2.8 21 7 1 5 27% 4897 69276 11112 32%
c i 26.70 28 168 0 35 11949 21 139347 15636 2.7 21 7 1 5 27% 4929 69273 11111 32%
c - 27.00 28 166 0 36 12144 21 141805 15155 2.7 20 7 1 5 27% 4938 69273 11111 32%
c i 27.29 28 164 0 36 12328 20 145049 18029 2.7 20 7 1 5 27% 4988 69271 11110 32%
c i 27.58 28 164 0 36 12485 20 146458 19233 2.7 20 7 1 5 27% 5016 69269 11107 32%
c i 27.69 28 163 0 36 12571 20 147382 20093 2.7 20 8 1 5 27% 5018 69269 11105 32%
c - 27.76 28 163 0 37 12618 20 147806 17230 2.7 20 8 1 5 27% 5023 69269 11105 32%
c i 27.76 28 163 0 37 12618 20 147814 17231 2.7 20 8 1 5 27% 5026 69269 11104 32%
c i 27.85 28 162 0 37 12657 20 148708 18060 2.7 20 8 1 5 27% 5029 69269 11103 32%
c i 27.94 28 162 0 37 12741 20 149141 18468 2.7 20 8 1 5 27% 5034 69269 11102 32%
c i 28.02 28 161 0 37 12791 20 149849 19075 2.7 20 8 1 5 27% 5047 69269 11101 32%
c i 28.09 28 161 0 37 12838 20 151030 19964 2.7 20 8 1 5 27% 5071 69269 11099 32%
c i 28.12 28 161 0 37 12865 20 151563 20406 2.7 20 8 1 5 27% 5078 69269 11098 32%
c i 28.17 28 160 0 37 12890 20 152182 20952 2.7 20 8 1 5 27% 5087 69269 11097 32%
c i 28.31 28 160 0 37 13002 20 153449 22040 2.7 20 8 1 5 27% 5095 69268 11095 32%
c i 28.33 28 160 0 37 13009 20 153559 22136 2.7 20 8 1 5 27% 5099 69268 11094 32%
c i 28.33 28 160 0 37 13009 20 153800 22339 2.7 20 8 1 5 27% 5102 69268 11093 32%
c
c  seconds   switched      rate          size/glue tier1    binary         remaining
c         MB   reductions    conflicts         size  tier2     irredundant
c           level   restarts        redundant    glue   trail         variables
c
c - 28.34 28 160 0 38 13019 20 153888 18390 2.7 20 8 1 5 27% 5085 69268 11093 32%
c i 28.34 28 160 0 38 13022 20 153903 18396 2.7 20 8 1 5 27% 5088 69268 11092 32%
c i 28.36 28 159 0 38 13035 20 154213 18673 2.7 20 8 1 5 27% 5092 69268 11091 32%
c i 28.38 28 159 0 38 13056 20 154318 18759 2.7 20 8 1 5 27% 5096 69268 11090 32%
c i 28.43 28 158 0 38 13089 20 155841 19995 2.7 20 8 1 5 27% 5107 69268 11089 32%
c i 28.44 28 158 0 38 13119 20 156015 20140 2.7 20 8 1 5 27% 5114 69268 11088 32%
c i 28.49 28 157 0 38 13184 19 157104 20972 2.7 20 8 1 5 26% 5136 69268 11084 32%
c i 28.51 28 156 0 38 13197 19 157529 21313 2.7 20 8 1 5 26% 5143 69268 11083 32%
c s 28.52 28 156 0 38 13197 19 157920 21556 2.7 20 7 1 5 26% 5131 68864 11083 32%
c e 28.62 28 156 0 38 13197 19 157920 21556 2.7 20 7 1 5 26% 2466 79407 9349 27%
c s 28.64 28 156 0 38 13197 19 157920 21556 2.7 20 7 1 5 26% 2466 78564 9349 27%
c e 28.66 28 156 0 38 13197 19 157920 21556 2.7 20 7 1 5 26% 2458 78749 9301 27%
c ^ 28.66 28 156 0 38 13197 19 157920 21556 2.7 20 7 1 5 26% 2458 78749 9301 27%
c - 28.74 28 153 0 39 13324 19 160054 12835 2.6 20 7 1 5 26% 2475 78734 9301 27%
c o 28.77 28 152 0 39 13361 19 161025 13646 2.6 20 7 1 5 26% 2482 78734 9301 27%
c i 28.84 28 149 0 39 13458 18 163389 15713 2.6 20 7 1 5 25% 2496 78734 9299 27%
c i 28.88 28 148 0 39 13543 18 164292 16488 2.6 20 7 1 5 25% 2506 78734 9298 27%
c i 28.89 28 147 0 39 13567 18 164913 16984 2.6 20 7 1 5 25% 2515 78734 9297 27%
c d 28.90 28 147 0 39 13568 18 164943 16475 2.6 20 7 1 5 25% 2493 78692 9283 27%
c d 28.90 28 147 0 39 13568 18 164943 16448 2.6 20 7 1 5 25% 2487 78692 9280 27%
c
c  seconds   switched      rate          size/glue tier1    binary        remaining
c         MB   reductions    conflicts         size  tier2     irredundant
c           level   restarts        redundant    glue   trail        variables
c
c b 28.90 28 147 0 39 13568 18 164943 16448 2.6 20 7 1 5 25% 2487 78692 9279 27%
c u 28.93 28 147 0 39 13568 18 164943 14725 2.6 20 7 1 5 25% 2500 78692 9279 27%
c v 28.97 28 147 0 39 13568 18 164943 12193 2.6 20 7 1 5 25% 2507 78692 9278 27%
c w 29.02 28 147 0 39 13568 18 164943 12065 2.6 20 7 1 5 25% 2507 78692 9278 27%
c x 29.07 28 147 0 39 13568 18 164943 12065 2.6 20 7 1 5 25% 2511 78639 9278 27%
c = 29.37 28 147 0 39 13568 18 164943 12065 2.6 20 7 1 5 25% 2549 78599 9259 27%
c d 29.37 28 147 0 39 13568 18 164943 11967 2.6 20 7 1 5 25% 2479 78597 9251 27%
c t 29.38 28 147 0 39 13568 18 164943 11967 2.6 20 7 1 5 25% 2475 78597 9251 27%
c f 29.44 28 147 0 39 13568 18 164943 11967 2.6 20 7 1 5 25% 2496 78072 9276 27%
c u 29.47 28 147 0 39 13568 18 164943 11749 2.6 20 7 1 5 25% 2497 78072 9276 27%
c v 29.50 28 147 0 39 13568 18 164943 11325 2.6 20 7 1 5 25% 2497 78072 9276 27%
c w 29.57 28 147 0 39 13568 18 164943 10843 2.6 20 7 1 5 25% 2497 78072 9276 27%
c = 29.87 28 147 0 39 13568 18 164943 10843 2.6 20 7 1 5 25% 2533 78002 9258 27%
c d 29.87 28 147 0 39 13568 18 164943 10831 2.6 20 7 1 5 25% 2484 78002 9258 27%
c i 29.91 28 147 0 39 13568 18 164943 10831 2.6 20 7 1 5 25% 2484 78002 9258 27%
c i 29.92 28 147 0 39 13575 18 165460 11165 2.6 20 7 1 5 25% 2492 78001 9253 27%
c i 29.92 28 147 0 39 13575 18 165545 11216 2.6 20 7 1 5 25% 2496 78001 9252 27%
c i 29.93 28 146 0 39 13577 18 165926 11490 2.6 20 7 1 5 25% 2501 78001 9250 27%
c i 29.93 28 146 0 39 13577 18 165962 11506 2.6 20 7 1 5 25% 2506 78001 9249 27%
c i 29.93 28 146 0 39 13577 18 165988 11514 2.6 20 7 1 5 25% 2509 78001 9248 27%
c
c  seconds   switched      rate          size/glue tier1    binary        remaining
c         MB   reductions    conflicts         size  tier2     irredundant
c           level   restarts        redundant    glue   trail        variables
c
c i 29.93 28 146 0 39 13577 18 166000 11516 2.6 20 7 1 5 25% 2512 78001 9246 27%
c i 29.93 28 146 0 39 13577 18 166012 11517 2.6 20 7 1 5 25% 2514 78001 9245 27%
c i 29.93 28 146 0 39 13577 18 166015 11516 2.6 20 7 1 5 25% 2515 78001 9244 27%
c i 29.93 28 146 0 39 13577 18 166017 11515 2.6 20 7 1 5 25% 2516 78001 9241 27%
c } 29.93 28 146 0 39 13577 18 166019 11514 2.6 20 7 1 5 25% 2516 78001 9234 27%
c 0 29.93 28 146 0 39 13577 18 166019 11514 2.6 20 7 1 5 25% 2516 78001 9234 27%
c
c ---- [ result ] ------------------------------------------------------------
c
s UNSATISFIABLE
c
c ---- [ profiling ] ---------------------------------------------------------
c
c          20.24   67.63 %  search
c          20.24   67.63 %  focused
c           9.37   31.31 %  simplify
c           8.92   29.81 %  probe
c           3.88   12.96 %  sweep
c           3.44   11.50 %  vivify
c           0.62    2.08 %  eliminate
c           0.60    2.01 %  factor
c           0.45    1.52 %  congruence
c           0.40    1.33 %  substitute
c           0.27    0.90 %  preprocess
c           0.15    0.51 %  reduce
c           0.10    0.35 %  transitive
c           0.10    0.34 %  subsume
c           0.09    0.31 %  fastel
c           0.04    0.14 %  backbone
c           0.02    0.08 %  lucky
c           0.02    0.07 %  parse
c =============================================
c          29.93  100.00 %  total
c
c ---- [ statistics ] --------------------------------------------------------
c
c chronological:                         4972                3 %  conflicts
c conflicts:                           166019             5547.18 per second
c congruent:                             3756               11 %  variables
c decisions:                          3163330               19.05 per conflict
c eliminated:                           18823               54 %  variables
c factored:                              3447               10 %  variables
c fast_eliminated:                      10992               58 %  eliminated
c fast_strengthened:                        2                0 %  per strengthened
c fast_subsumed:                           55                1 %  per subsumed
c iterations:                              34                0 %  variables
c propagations:                     141772241          4737022    per second
c reductions:                              39             4257    interval
c reordered:                                6            27670    interval
c restarts:                             13577               12    interval
c strengthened:                          4039                0 %  checks
c substituted:                           9972               29 %  variables
c subsumed:                             10551                0 %  checks
c switched:                                 0                0    interval
c vivified:                             85776               13 %  checks
c
c ---- [ glue usage ] --------------------------------------------------------
c
c focused glue 1 used 224888 clauses 55.05% accumulated 55.05% tier1
c focused glue 2 used  90407 clauses 22.13% accumulated 77.19%
c focused glue 3 used  28460 clauses  6.97% accumulated 84.15%
c focused glue 4 used  15831 clauses  3.88% accumulated 88.03%
c focused glue 5 used  10766 clauses  2.64% accumulated 90.67% tier2
c
c ---- [ resources ] ---------------------------------------------------------
c
c maximum-resident-set-size:         31158272 bytes         30 MB
c process-time:                            30s              29.93 seconds
c
c ---- [ shutting down ] -----------------------------------------------------
c
c exit 20
